(set-info :Origin "This instance was generated by: BanditFuzz-- an RL fuzzer for SMT solvers" )
(set-info :Author "Joe Scott, Fed Mora, Vijay Ganesh" )
(set-info :Contact "Joe Scott, joseph.scott@uwaterloo.ca")
(set-logic QF_BV)
(declare-const bool_0 Bool)
(declare-const bool_1 Bool)
(declare-const bool_2 Bool)
(declare-const bool_3 Bool)
(declare-const bool_4 Bool)
(declare-const bv_0 (_ BitVec 32))
(declare-const bv_1 (_ BitVec 32))
(declare-const bv_2 (_ BitVec 32))
(declare-const bv_3 (_ BitVec 32))
(declare-const bv_4 (_ BitVec 32))
(assert (bvsge (bvadd (bvnand bv_3 bv_1) (bvmul bv_2 #xc9c9ef0d )) (bvsmod (bvlshr #xced7a937  #x2537fae9 ) (bvnand bv_3 #x02b1198f ))))
(assert (bvsgt (bvsmod (bvashr #x942da9e6  #x7a881d35 ) (bvsdiv #xb25ad197  bv_1)) (bvlshr (bvudiv bv_3 bv_3) (bvudiv bv_2 bv_1))))
(assert (not (bvsle (bvmul bv_1 #x65ec9fc5 ) (bvnor #x302b633e  bv_4))))
(assert (bvsle (bvsub (bvudiv #xd71c31e1  bv_0) (bvshl #xfc75a20c  bv_2)) (bvudiv (bvudiv bv_0 #x2008701f ) (bvmul #xbda09483  #x3f5c19f7 ))))
(assert (or (xor (bvult bv_1 #xd69331f5 ) (not bool_2)) (bvult (bvsdiv bv_2 bv_0) (bvurem bv_0 bv_1))))
(check-sat)
(exit)
